[2026-03-24T00:44:24.982Z] Pipeline "set_prova_set_prova_set_s006_g002" → 2026_03_24_00_44_24_set_prova_set_prova_set_s006_g002_max.sol
Set parameter WLSAccessID
Set parameter WLSSecret
Set parameter LicenseID to value 2792458
Set parameter LogFile to value "gurobi.log"
Using license file /root/gurobi.lic
Academic license 2792458 - for non-commercial use only - registered to an___@studenti.unipg.it

Gurobi Optimizer version 13.0.1 build v13.0.1rc0 (linux64 - "Ubuntu 24.04.4 LTS")
Copyright (c) 2026, Gurobi Optimization, LLC

Warning: Duplicate section found (read 'binary') - Is a variable name equal to an LP file format keyword?
Warning: Duplicate section found (read 'binary') - Is a variable name equal to an LP file format keyword?
Warning: Duplicate section found (read 'binary') - Is a variable name equal to an LP file format keyword?
Warning: Duplicate section found (read 'binary') - Is a variable name equal to an LP file format keyword?
Warning: Duplicate section found (read 'binary') - Is a variable name equal to an LP file format keyword?
Warning: Duplicate section found (read 'binary') - Is a variable name equal to an LP file format keyword?
Warning: Duplicate section found (read 'binary') - Is a variable name equal to an LP file format keyword?
Warning: Duplicate section found (read 'binary') - Is a variable name equal to an LP file format keyword?
Warning: Duplicate section found (read 'binary') - Is a variable name equal to an LP file format keyword?
Warning: Duplicate section found (read 'binary') - Is a variable name equal to an LP file format keyword?
Warning: Further warnings of this type will be omitted.
Read LP format model from file /root/bgw/data/uploads/2026_03_24_00_44_24_set_prova_set_prova_set_s006_g002_max.lp
Reading time = 0.00 seconds
: 2668 rows, 288 columns, 8017 nonzeros

Using Gurobi shared library /opt/gurobi1301/linux64/lib/libgurobi.so.13.0.1

CPU model: AMD EPYC-Genoa Processor, instruction set [SSE2|AVX|AVX2|AVX512]
Thread count: 16 physical cores, 16 logical processors, using up to 16 threads

Academic license 2792458 - for non-commercial use only - registered to an___@studenti.unipg.it
Optimize a model with 2668 rows, 288 columns and 8017 nonzeros (Max)
Model fingerprint: 0xc0a0788a
Model has 16 linear objective coefficients
Variable types: 36 continuous, 252 integer (252 binary)
Coefficient statistics:
  Matrix range     [1e+00, 2e+01]
  Objective range  [1e+00, 1e+00]
  Bounds range     [1e+00, 1e+00]
  RHS range        [1e+00, 2e+01]

Found heuristic solution: objective 16.0000000
Presolve removed 340 rows and 69 columns
Presolve time: 0.01s
Presolved: 2328 rows, 219 columns, 7154 nonzeros
Variable types: 0 continuous, 219 integer (209 binary)
Found heuristic solution: objective 20.0000000

Root relaxation: objective 7.300000e+01, 232 iterations, 0.01 seconds (0.01 work units)

    Nodes    |    Current Node    |     Objective Bounds      |     Work
 Expl Unexpl |  Obj  Depth IntInf | Incumbent    BestBd   Gap | It/Node Time

     0     0   73.00000    0   51   20.00000   73.00000   265%     -    0s
H    0     0                      26.0000000   73.00000   181%     -    0s
H    0     0                      32.0000000   73.00000   128%     -    0s
H    0     0                      38.0000000   73.00000  92.1%     -    0s
     0     0   73.00000    0   57   38.00000   73.00000  92.1%     -    0s
     0     0   73.00000    0   62   38.00000   73.00000  92.1%     -    0s
     0     0   73.00000    0   50   38.00000   73.00000  92.1%     -    0s
     0     0   73.00000    0   52   38.00000   73.00000  92.1%     -    0s
     0     0   73.00000    0   49   38.00000   73.00000  92.1%     -    0s
H    0     0                      39.0000000   73.00000  87.2%     -    0s
     0     0   73.00000    0   51   39.00000   73.00000  87.2%     -    0s
     0     0   73.00000    0   49   39.00000   73.00000  87.2%     -    0s
     0     0   73.00000    0   49   39.00000   73.00000  87.2%     -    0s
     0     0   73.00000    0   49   39.00000   73.00000  87.2%     -    0s
H    0     0                      42.0000000   73.00000  73.8%     -    0s
     0     0   73.00000    0   49   42.00000   73.00000  73.8%     -    0s
     0     0   73.00000    0   49   42.00000   73.00000  73.8%     -    0s
     0     0   73.00000    0   49   42.00000   73.00000  73.8%     -    0s
     0     0   73.00000    0   49   42.00000   73.00000  73.8%     -    0s
     0     2   73.00000    0   49   42.00000   73.00000  73.8%     -    0s
 13931  2584   53.00000   27   39   42.00000   57.94444  38.0%  52.3    5s
 42086  4009 infeasible   30        42.00000   51.00000  21.4%  50.5   10s

Cutting planes:
  Inf proof: 1

Explored 65956 nodes (3318160 simplex iterations) in 13.45 seconds (25.93 work units)
Thread count was 16 (of 16 available processors)

Solution count 10: 42 42 42 ... 16

Optimal solution found (tolerance 1.00e-04)
Best objective 4.200000000000e+01, best bound 4.200000000000e+01, gap 0.0000%

Wrote result file '/root/bgw/data/results/2026_03_24_00_44_24_set_prova_set_prova_set_s006_g002_max.sol'

